Set parameter TSPort to value 51199
Set parameter TokenServer to value "open-license1.lanl.gov"
Set parameter TimeLimit to value 64
Set parameter Threads to value 1
Gurobi Optimizer version 10.0.3 build v10.0.3rc0 (linux64)

CPU model: Intel(R) Xeon(R) CPU E5-2695 v4 @ 2.10GHz, instruction set [SSE2|AVX|AVX2]
Thread count: 36 physical cores, 72 logical processors, using up to 1 threads

Optimize a model with 0 rows, 598 columns and 0 nonzeros
Model fingerprint: 0x381b11d0
Model has 2589 quadratic objective terms
Variable types: 0 continuous, 598 integer (598 binary)
Coefficient statistics:
  Matrix range     [0e+00, 0e+00]
  Objective range  [2e+00, 3e+01]
  QObjective range [8e+00, 8e+00]
  Bounds range     [1e+00, 1e+00]
  RHS range        [0e+00, 0e+00]
Found heuristic solution: objective 0.0000000
Found heuristic solution: objective -1012.000000
Found heuristic solution: objective -3594.000000
Found heuristic solution: objective -3608.000000
Presolve removed 0 rows and 1 columns
Presolve time: 0.25s
Presolved: 2586 rows, 3183 columns, 7758 nonzeros
Variable types: 0 continuous, 3183 integer (3183 binary)

Root relaxation: objective -4.912000e+03, 695 iterations, 0.01 seconds (0.01 work units)

    Nodes    |    Current Node    |     Objective Bounds      |     Work
 Expl Unexpl |  Obj  Depth IntInf | Incumbent    BestBd   Gap | It/Node Time

     0     0 -4912.0000    0  597 -3608.0000 -4912.0000  36.1%     -    0s
     0     0 -4489.0000    0  818 -3608.0000 -4489.0000  24.4%     -    0s
     0     0 -4488.0000    0  820 -3608.0000 -4488.0000  24.4%     -    0s
     0     0 -4409.2500    0  881 -3608.0000 -4409.2500  22.2%     -    0s
     0     0 -4409.2500    0  873 -3608.0000 -4409.2500  22.2%     -    1s
     0     2 -4409.2500    0  873 -3608.0000 -4409.2500  22.2%     -    1s
   513   491 -3665.5000  126  597 -3608.0000 -4395.0000  21.8%  83.1    5s
   532   504 -3987.5000   53 1671 -3608.0000 -4048.2281  12.2%  80.1   10s
   542   511 -3633.0000  136 1984 -3608.0000 -3993.2305  10.7%  78.6   15s
   551   517 -3954.5774   10 2193 -3608.0000 -3954.5774  9.61%  77.3   20s
   559   522 -3628.0000  137 2356 -3608.0000 -3929.3710  8.91%  76.2   25s
   568   528 -3905.1965   45 2594 -3608.0000 -3905.1965  8.24%  75.0   32s
   570   529 -3900.7062   16 2628 -3608.0000 -3900.7062  8.11%  74.8   35s
   576   533 -3880.5000   73 2685 -3608.0000 -3885.7007  7.70%  74.0   40s
   584   539 -3806.5000   81 2708 -3608.0000 -3875.6521  7.42%  73.0   46s
   592   544 -3651.5000  131 2739 -3608.0000 -3870.8302  7.28%  72.0   50s
   604   552 -3796.5000   92 2769 -3608.0000 -3864.4318  7.11%  70.6   56s
   610   556 -3860.4024   61 2772 -3608.0000 -3860.4024  7.00%  69.9   60s

Cutting planes:
  Gomory: 27
  MIR: 108
  Flow cover: 884
  Zero half: 463
  Mod-K: 1
  RLT: 122
  BQP: 162

Explored 620 nodes (181108 simplex iterations) in 64.00 seconds (66.11 work units)
Thread count was 1 (of 72 available processors)

Solution count 4: -3608 -3594 -1012 0 

Time limit reached
Best objective -3.608000000000e+03, best bound -3.858000000000e+03, gap 6.9290%

User-callback calls 4325, time in user-callback 0.02 sec

BQP_SOLUTION, 598, 2589, -1283.000000, 64.000616, -1, 1, -1, -1, -1, 1, -1, -1, -1, 1, -1, 1, -1, -1, -1, -1, 1, -1, -1, 1, -1, 1, -1, -1, -1, -1, 1, -1, -1, -1, -1, 1, -1, -1, -1, 1, -1, 1, -1, -1, -1, 1, -1, -1, 1, -1, -1, 1, -1, -1, -1, 1, 1, 1, -1, -1, 1, -1, -1, -1, -1, 1, 1, -1, -1, 1, 1, -1, -1, -1, -1, 1, -1, -1, 1, 1, -1, -1, -1, -1, -1, 1, 1, -1, 1, -1, 1, -1, -1, 1, 1, -1, -1, 1, -1, 1, -1, 1, 1, 1, 1, 1, 1, 1, -1, 1, -1, 1, -1, 1, 1, -1, 1, 1, -1, 1, -1, -1, -1, 1, 1, -1, -1, 1, -1, 1, -1, 1, 1, -1, 1, -1, 1, 1, -1, 1, -1, 1, -1, -1, 1, -1, 1, 1, 1, 1, -1, 1, 1, -1, -1, -1, 1, 1, -1, -1, 1, 1, 1, -1, 1, -1, 1, -1, 1, -1, 1, 1, -1, 1, -1, 1, 1, -1, -1, -1, 1, -1, 1, -1, 1, -1, 1, -1, -1, -1, -1, -1, -1, -1, 1, -1, -1, 1, -1, 1, -1, 1, -1, -1, -1, -1, -1, 1, -1, 1, 1, 1, 1, -1, 1, 1, -1, 1, -1, 1, -1, -1, 1, 1, 1, 1, -1, 1, -1, 1, 1, -1, 1, -1, 1, -1, -1, 1, 1, 1, -1, -1, 1, -1, 1, -1, -1, 1, 1, 1, -1, -1, 1, 1, 1, -1, 1, 1, 1, 1, -1, 1, 1, 1, 1, 1, -1, 1, 1, -1, -1, -1, 1, 1, -1, 1, -1, 1, 1, -1, 1, -1, 1, 1, -1, 1, -1, 1, 1, -1, 1, -1, 1, 1, -1, 1, -1, 1, 1, -1, 1, 1, 1, 1, -1, 1, -1, 1, 1, -1, -1, 1, -1, 1, -1, 1, -1, -1, 1, -1, 1, 1, 1, 1, -1, 1, 1, 1, 1, -1, 1, -1, 1, -1, 1, -1, -1, -1, -1, 1, 1, 1, -1, -1, -1, 1, -1, 1, -1, 1, 1, -1, 1, -1, -1, -1, 1, 1, -1, 1, 1, 1, 1, -1, 1, -1, 1, 1, 1, 1, -1, 1, -1, 1, 1, -1, 1, -1, 1, 1, -1, 1, -1, 1, 1, -1, -1, -1, 1, 1, -1, 1, -1, 1, 1, -1, 1, -1, -1, 1, 1, -1, -1, 1, 1, -1, 1, -1, -1, 1, -1, -1, 1, -1, -1, -1, 1, 1, -1, 1, -1, -1, -1, 1, -1, 1, -1, -1, 1, -1, -1, -1, 1, -1, 1, 1, -1, 1, -1, -1, 1, -1, 1, 1, -1, 1, -1, 1, 1, -1, 1, -1, 1, 1, 1, 1, 1, 1, -1, -1, -1, -1, 1, 1, -1, 1, 1, 1, 1, -1, 1, 1, 1, -1, -1, 1, 1, 1, 1, -1, 1, 1, 1, -1, 1, 1, 1, 1, -1, 1, 1, 1, 1, -1, -1, 1, 1, 1, -1, -1, 1, 1, 1, 1, -1, 1, 1, 1, 1, -1, 1, 1, 1, 1, -1, -1, 1, 1, -1, 1, -1, -1, 1, 1, -1, 1, 1, 1, -1, -1, -1, -1, 1, 1, -1, -1, -1, 1, 1, 1, 1, 1, 1, -1, 1, -1, -1, 1, -1, 1, -1, -1, 1, 1, 1, -1, -1, -1, 1, 1, -1, -1, 1, 1, 1, -1, 1, 1, -1, 1, -1, -1, 1, -1, 1, -1, -1, 1, 1, 1, -1, -1, -1, 1, -1, 1, -1, 1, -1, 1, 1, -1, 1, -1, 1, 1, -1, -1, 1, 1, 1, -1
BQP_DATA, 598, 2589, -1283.000000, -1533.000000, -3608.000000, -3858.000000, 64.000616, 1483, 620
